NAME: Random_85_4
ELLAPSED_TIME_(ms): 440
TOUR_SIZE: 1794
TOUR_SECTION
0
9
6
4
80
23
15
43
53
75
65
27
20
44
57
13
41
79
31
33
25
10
21
52
48
5
84
83
77
36
78
61
1
35
40
22
29
76
18
73
2
62
37
60
12
67
42
70
8
34
72
49
30
69
81
64
54
59
3
68
63
47
82
46
50
71
45
39
28
51
24
11
16
38
26
19
17
74
58
14
56
55
7
32
66
0
EOF
